&CONTROL
  calculation = 'relax'
  etot_conv_thr =   2.0000000000d-04
  forc_conv_thr =   1.0000000000d-03
  max_seconds =   86400
  outdir = './out/'
  prefix = 'aiida'
  pseudo_dir = './pseudo/'
  restart_mode = 'from_scratch'
  tprnfor = .true.
  tstress = .true.
  verbosity = 'high'
/
&SYSTEM
  degauss =   1.0000000000d-02
  ecutrho =   2.4000000000d+02
  ecutwfc =   3.0000000000d+01
  ibrav = 0
  nat = 2
  nosym = .false.
  ntyp = 1
  occupations = 'smearing'
  smearing = 'cold'
/
&ELECTRONS
  conv_thr =   8.0000000000d-10
  electron_maxstep = 80
  mixing_beta =   4.0000000000d-01
/
&IONS
/
ATOMIC_SPECIES
Si     28.085 Si.pbe-n-rrkjus_psl.1.0.0.UPF
ATOMIC_POSITIONS angstrom
Si           0.0000000000       0.0000000000       0.0000000000
Si           1.8940738226       1.0935440313       0.7732524001
K_POINTS automatic
5 5 5 0 0 0
CELL_PARAMETERS angstrom
      3.7881476452       0.0000000000       0.0000000000
      1.8940738226       3.2806320940       0.0000000000
      1.8940738226       1.0935440313       3.0930096003
